Na8 Nb8 O24
1.0
   5.5005002000000003   -0.0000000000000000    0.0000000000000003
  -0.0000000000000003    5.5640001299999966   -0.0000000000000001
   0.0000000000000000   -0.0000000000000013   15.5087995499999973
Na Nb O
8 8 24
direct
   0.7268140300000000    0.7500000000000000    0.0000000000000000 Na
   0.7268140300000000    0.7500000000000000    0.5000000000000000 Na
   0.2731860000000000    0.2500000000000000    0.0000000000000000 Na
   0.2731860000000000    0.2500000000000000    0.5000000000000000 Na
   0.7350599799999999    0.7154480200000000    0.2500000000000000 Na
   0.7350599799999999    0.7845519800000000    0.7500000000000000 Na
   0.2649399900000000    0.2154480100000000    0.2500000000000000 Na
   0.2649399900000000    0.2845519800000000    0.7500000000000000 Na
   0.7556390200000001    0.2321569900000000    0.1250000000000000 Nb
   0.7556390200000001    0.2678430100000000    0.6250000000000000 Nb
   0.2443610000000000    0.7321569900000000    0.3750000000000000 Nb
   0.2443610000000000    0.7678430100000000    0.8750000000000000 Nb
   0.2443610000000000    0.7321569900000000    0.1250000000000000 Nb
   0.2443610000000000    0.7678430100000000    0.6250000000000000 Nb
   0.7556390200000001    0.2321569900000000    0.3750000000000000 Nb
   0.7556390200000001    0.2678430100000000    0.8750000000000000 Nb
   0.6883249900000000    0.2500000000000000    0.0000000000000000 O
   0.6883249900000000    0.2500000000000000    0.5000000000000000 O
   0.3116750100000000    0.7500000000000000    0.0000000000000000 O
   0.3116750100000000    0.7500000000000000    0.5000000000000000 O
   0.8171179900000000    0.2696790100000000    0.2500000000000000 O
   0.8171179900000000    0.2303209900000000    0.7500000000000000 O
   0.1828820000000000    0.7696790100000001    0.2500000000000000 O
   0.1828820000000000    0.7303209899999999    0.7500000000000000 O
   0.9674680200000000    0.5485630000000000    0.1087900000000000 O
   1.0325320000000000    0.4514370000000000    0.6087899800000000 O
   0.4685550000000000    0.4784939900000000    0.3603770100000000 O
   0.5314450300000000    0.5215060100000000    0.8603770100000000 O
   0.4685550000000000    0.4784939900000000    0.1396230000000000 O
   0.5314450300000000    0.5215060100000000    0.6396229900000000 O
   0.9674680200000000    0.5485630000000000    0.3912099900000000 O
   1.0325320000000000    0.4514370000000000    0.8912100200000000 O
   0.0325320000000000    0.0485630000000000    0.1087900000000000 O
  -0.0325319800000000   -0.0485630000000001    0.6087899800000000 O
   0.5314450300000000    0.9784939900000000    0.3603770100000000 O
   0.4685550000000000    1.0215060100000000    0.8603770100000000 O
   0.5314450300000000    0.9784939900000000    0.1396230000000000 O
   0.4685550000000000    1.0215060100000000    0.6396229900000000 O
   0.0325320000000000    0.0485630000000000    0.3912099900000000 O
  -0.0325319800000000   -0.0485630000000001    0.8912100200000000 O
